617,207
817,139
871,216
808,279
621,406
657,423
776,593
641,486
540,600
491,780
561,776
782,719
927,745
1093,705
441,406
291,406
269,107
635,110
874,140
444,443
307,596
448,639
716,358
738,388
761,366
1166,249
